
  22   10
  10   10   10   10   10   10   10   10   10   10

   0   0   0   0   0   0   0   0   0   0   0   3 2 4 5 
   9  10  10  10  10  10  10  10  10  10  10   1 3 
   6  10  10  10  10  10  10  10  10  10  10   4 14 12 10 6 
   6  10  10  10  10  10  10  10  10  10  10   4 12 9 8 7 
   5  10  10  10  10  10  10  10  10  10  10   3 12 10 8 
   5  10  10  10  10  10  10  10  10  10  10   2 9 7 
   4  10  10  10  10  10  10  10  10  10  10   2 15 11 
   9  10  10  10  10  10  10  10  10  10  10   2 19 14 
   5  10  10  10  10  10  10  10  10  10  10   2 19 16 
   9  10  10  10  10  10  10  10  10  10  10   2 19 16 
  10  10  10  10  10  10  10  10  10  10  10   1 13 
   5  10  10  10  10  10  10  10  10  10  10   1 13 
   7  10  10  10  10  10  10  10  10  10  10   1 16 
   3  10  10  10  10  10  10  10  10  10  10   1 16 
   8  10  10  10  10  10  10  10  10  10  10   2 19 18 
   7  10  10  10  10  10  10  10  10  10  10   1 17 
   4  10  10  10  10  10  10  10  10  10  10   2 20 18 
   1  10  10  10  10  10  10  10  10  10  10   1 21 
   9  10  10  10  10  10  10  10  10  10  10   1 20 
  10  10  10  10  10  10  10  10  10  10  10   1 22
   8  10  10  10  10  10  10  10  10  10  10   1 22
   0   0   0   0   0   0   0   0   0   0   0   0 
